%%% static parameters %%%
timespan = 1;
Fact = [3];
Distr1 = [10];
Distr2 = [20];
Clients_N = [40];
Demand_W = [15];
Lt0 = [4];
Lt1 = [4];
SS_ = [0.85];
DS_D = [7];
K = [200];
MA = [500];
%%% dynamic parameters %%%
lost_ratio_sales_ret_th = 0.8703823929844247;
lost_ratio_sales_ret_w = 87;
lost_ratio_sales_dis_th = 0.6763739862730167;
lost_ratio_sales_dis_w = 81;
lost_ratio_sales_fac_th = 0.9135331291472606;
lost_ratio_sales_fac_w = 23;
stock_customer_MA_mean_relative_th = 0.0615072948516312;
stock_customer_MA_mean_relative_w = 100;
stock_distributor_MA_mean_relative_th = 0.25637963181977075;
stock_distributor_MA_mean_relative_w = 81;
stock_retailer_MA_mean_relative_th = 0.7344794822599354;
stock_retailer_MA_mean_relative_w = 92;
stock_factory_MA_mean_relative_th = 0.2871199551140128;
stock_factory_MA_mean_relative_w = 19;
